nNurses = 68;
nHours = 27;
minHours = 3;
maxHours = 10;
maxConsec = 7;
maxPresence = 8;
demand = [26, 23, 21, 26, 23, 22, 21, 24, 21, 20, 23, 20, 16, 12, 14, 11, 15, 10, 13, 11, 13, 10, 13, 12, 12, 8, 9];
